32      4       
14      12      20      20      
0       0       0       0       0       1       2       
9       3       11      0       0       1       3       
4       0       0       6       4       2       4       8       
5       0       11      0       8       1       5       
6       7       0       17      0       2       6       7       
4       1       0       0       16      2       9       12      
5       14      1       0       0       1       10      
10      5       11      0       0       1       9       
4       14      2       0       0       2       11      13      
3       0       0       8       1       2       11      13      
4       0       4       4       0       3       14      15      17      
7       0       12      12      0       3       14      15      17      
5       10      2       0       0       1       14      
2       7       0       1       0       3       16      18      24      
5       0       8       16      0       2       16      24      
3       0       5       8       0       3       19      20      22      
10      10      6       0       0       3       19      20      23      
5       14      0       0       7       3       20      22      23      
10      0       0       6       1       1       21      
5       0       3       0       4       1       25      
8       5       0       0       18      1       25      
5       0       0       20      12      1       25      
5       5       0       0       16      1       25      
3       2       0       20      0       1       25      
1       0       0       1       20      2       26      27      
1       0       0       4       8       2       28      29      
4       2       0       0       14      1       28      
2       0       7       0       17      2       30      31      
9       0       4       7       0       1       30      
6       0       3       20      0       1       32      
8       6       0       0       4       1       32      
0       0       0       0       0       0       
